#######################################
### Exact MIP solver for the HHCRSP ###
#######################################
-- Instance file: new-instances/HHCRSP_25_5_41_1.0_R_C.txt
-- Max threads: 4
-- Time limit: 999999 seconds
-- Use initial solution: No
Trivial flow violations prevented generating 776 variables.
Model exported.
Version identifier: 20.1.0.0 | 2020-11-10 | 9bedb6d68
CPXPARAM_Threads                                 4
CPXPARAM_TimeLimit                               999999
Tried aggregator 1 time.
LP Presolve eliminated 383 rows and 119 columns.
Reduced LP has 1157 rows, 1130 columns, and 7585 nonzeros.
Presolve time = 0.00 sec. (2.79 ticks)

Iteration log . . .
Iteration:     1   Dual objective     =             0.000000
Iteration:   116   Dual objective     =            55.337027

Solution status from MIP model:
-- Processing time: 0.007 sec.
-- Memory used: 14.8848 MB
-- Best bound: inf
-- Obj value: 55.3371
-- Gap: inf%
-- Total distance: 166.011
-- Total tardiness: 0
-- Largest tardiness: 0
